NAME : LPS-n17-m71
COMMENT : (Lartu-Peter-Santi Plot, instance 5671 out of 39200. 17 customers.)
TYPE : CVRP
DIMENSION : 17
EDGE_WEIGHT_TYPE : EUC_2D
CAPACITY : 133
NODE_COORD_SECTION
 1 65 12
 2 64 5
 3 34 11
 4 0 54
 5 79 7
 6 15 1
 7 12 38
 8 53 73
 9 4 58
 10 33 22
 11 99 87
 12 58 24
 13 30 58
 14 46 36
 15 79 68
 16 57 52
 17 58 11
DEMAND_SECTION
1 0
2 56
3 79
4 9
5 28
6 98
7 120
8 99
9 35
10 116
11 63
12 106
13 80
14 40
15 88
16 31
17 71
DEPOT_SECTION
 1
 -1
EOF
